c A SAT instance generated from a 3-CNF formula that had 20 clauses and 10 variables
p cnf 10 20
10 2 1 0
1 -5 -2 0
6 4 -7 0
-4 9 -2 0
5 -4 10 0
4 -6 7 0
-2 5 -6 0
-3 5 7 0
10 8 -6 0
1 -2 9 0
-10 -9 -1 0
3 9 4 0
-1 8 6 0
2 4 3 0
-6 -8 -2 0
3 -10 1 0
-1 -3 9 0
9 -7 -1 0
7 -6 -2 0
-3 -10 6 0
